\* row_knapsack_problem *\
Minimize
knapsack: 55 row_0 + 57 row_10 + 57 row_12 + 59 row_13 + 61 row_14 + 63 row_15
 + 59 row_16 + 55 row_17 + 57 row_2 + 56 row_20 + 57 row_22 + 56 row_24
 + 56 row_25 + 56 row_27 + 54 row_28 + 54 row_29 + 58 row_31 + 54 row_33
 + 58 row_34 + 61 row_35 + 63 row_36 + 56 row_38 + 60 row_39 + 58 row_4
 + 61 row_40 + 56 row_41 + 62 row_42 + 58 row_43 + 57 row_45 + 57 row_46
 + 58 row_47 + 56 row_49 + 59 row_5 + 56 row_51 + 58 row_54 + 58 row_55
 + 58 row_60 + 61 row_61 + 58 row_64 + 59 row_65 + 62 row_66 + 55 row_67
 + 58 row_68 + 56 row_69 + 56 row_7 + 58 row_71 + 58 row_72 + 64 row_73
 + 56 row_74 + 56 row_78 + 58 row_80 + 58 row_81 + 55 row_83 + 61 row_84
 + 58 row_85 + 58 row_87 + 59 row_89 + 56 row_9 + 56 row_90 + 60 row_91
 + 58 row_93 + 55 row_94 + 58 row_95 + 62 row_97 + 61 row_98 + 58 row_99
Subject To
sensitivity: 12 row_0 + 10 row_10 + 10 row_12 + 8 row_13 + 6 row_14 + 4 row_15
 + 8 row_16 + 12 row_17 + 10 row_2 + 11 row_20 + 10 row_22 + 11 row_24
 + 11 row_25 + 11 row_27 + 13 row_28 + 13 row_29 + 9 row_31 + 13 row_33
 + 9 row_34 + 6 row_35 + 4 row_36 + 11 row_38 + 7 row_39 + 9 row_4 + 6 row_40
 + 11 row_41 + 5 row_42 + 9 row_43 + 10 row_45 + 10 row_46 + 9 row_47
 + 11 row_49 + 8 row_5 + 11 row_51 + 9 row_54 + 9 row_55 + 9 row_60 + 6 row_61
 + 9 row_64 + 8 row_65 + 5 row_66 + 12 row_67 + 9 row_68 + 11 row_69
 + 11 row_7 + 9 row_71 + 9 row_72 + 3 row_73 + 11 row_74 + 11 row_78
 + 9 row_80 + 9 row_81 + 12 row_83 + 6 row_84 + 9 row_85 + 9 row_87 + 8 row_89
 + 11 row_9 + 11 row_90 + 7 row_91 + 9 row_93 + 12 row_94 + 9 row_95
 + 5 row_97 + 6 row_98 + 9 row_99 >= 60
Bounds
 row_0 <= 1
 row_10 <= 1
 row_12 <= 1
 row_13 <= 1
 row_14 <= 1
 row_15 <= 1
 row_16 <= 1
 row_17 <= 1
 row_2 <= 1
 row_20 <= 1
 row_22 <= 1
 row_24 <= 1
 row_25 <= 1
 row_27 <= 1
 row_28 <= 1
 row_29 <= 1
 row_31 <= 1
 row_33 <= 1
 row_34 <= 1
 row_35 <= 1
 row_36 <= 1
 row_38 <= 1
 row_39 <= 1
 row_4 <= 1
 row_40 <= 1
 row_41 <= 1
 row_42 <= 1
 row_43 <= 1
 row_45 <= 1
 row_46 <= 1
 row_47 <= 1
 row_49 <= 1
 row_5 <= 1
 row_51 <= 1
 row_54 <= 1
 row_55 <= 1
 row_60 <= 1
 row_61 <= 1
 row_64 <= 1
 row_65 <= 1
 row_66 <= 1
 row_67 <= 1
 row_68 <= 1
 row_69 <= 1
 row_7 <= 1
 row_71 <= 1
 row_72 <= 1
 row_73 <= 1
 row_74 <= 1
 row_78 <= 1
 row_80 <= 1
 row_81 <= 1
 row_83 <= 1
 row_84 <= 1
 row_85 <= 1
 row_87 <= 1
 row_89 <= 1
 row_9 <= 1
 row_90 <= 1
 row_91 <= 1
 row_93 <= 1
 row_94 <= 1
 row_95 <= 1
 row_97 <= 1
 row_98 <= 1
 row_99 <= 1
End
